SystemName TiS3
SystemLabel TiS3
NumberOfAtoms 72
SpinPolarized .true.
NumberOfSpecies 3
%block ChemicalSpeciesLabel
1  22 Ti
2  16 S
3  6 C
%endblock ChemicalSpeciesLabel

XC.functional		GGA
XC.authors		PBE

PAO.BasisSize		DZP
PAO.EnergyShift		65 meV

LatticeConstant 1.0 Ang
%block LatticeParameters
4.94760 16.89350 25.00000 90.00000 90.00000 90.00000
%endblock LatticeParameters

AtomicCoordinatesFormat  Fractional
%block AtomicCoordinatesAndAtomicSpecies
0.32844800	0.05000000	0.10474200	1
0.32844800	0.25000000	0.10474200	1
0.32844800	0.45000000	0.10474200	1
0.32844800	0.65000000	0.10474200	1
0.32844800	0.85000000	0.10474200	1
0.82482600	0.15000000	0.00000000	1
0.82482600	0.35000000	0.00000000	1
0.82482600	0.55000000	0.00000000	1
0.82482600	0.75000000	0.00000000	1
0.82482600	0.95000000	0.00000000	1
0.61387700	0.05000000	0.94013700	2
0.61387700	0.25000000	0.94013700	2
0.61387700	0.45000000	0.94013700	2
0.61387700	0.65000000	0.94013700	2
0.61387700	0.85000000	0.94013700	2
0.53939700	0.15000000	0.16460500	2
0.53939700	0.35000000	0.16460500	2
0.53939700	0.55000000	0.16460500	2
0.53939700	0.75000000	0.16460500	2
0.53939700	0.95000000	0.16460500	2
0.82469000	0.05000000	0.07019800	2
0.82469000	0.25000000	0.07019800	2
0.82469000	0.45000000	0.07019800	2
0.82469000	0.65000000	0.07019800	2
0.82469000	0.85000000	0.07019800	2
0.32858300	0.15000000	0.03454400	2
0.32858300	0.35000000	0.03454400	2
0.32858300	0.55000000	0.03454400	2
0.32858300	0.75000000	0.03454400	2
0.32858300	0.95000000	0.03454400	2
0.04157400	0.05000000	0.93895800	2
0.04157400	0.25000000	0.93895800	2
0.04157400	0.45000000	0.93895800	2
0.04157400	0.65000000	0.93895800	2
0.04157400	0.85000000	0.93895800	2
0.11170000	0.15000000	0.16578400	2
0.11170000	0.35000000	0.16578400	2
0.11170000	0.55000000	0.16578400	2
0.11170000	0.75000000	0.16578400	2
0.11170000	0.95000000	0.16578400	2
0.37500000	0.20835500	0.29284560	3
0.37500000	0.45835500	0.29284560	3
0.37500000	0.70835500	0.29284560	3
0.37500000	0.95835500	0.29284560	3
0.87500000	0.20835500	0.29284560	3
0.87500000	0.45835500	0.29284560	3
0.87500000	0.70835500	0.29284560	3
0.87500000	0.95835500	0.29284560	3
0.37500000	0.04164500	0.29284560	3
0.37500000	0.29164500	0.29284560	3
0.37500000	0.54164500	0.29284560	3
0.37500000	0.79164500	0.29284560	3
0.87500000	0.04164500	0.29284560	3
0.87500000	0.29164500	0.29284560	3
0.87500000	0.54164500	0.29284560	3
0.87500000	0.79164500	0.29284560	3
0.12500000	0.08335500	0.29284560	3
0.12500000	0.33335500	0.29284560	3
0.12500000	0.58335500	0.29284560	3
0.12500000	0.83335500	0.29284560	3
0.62500000	0.08335500	0.29284560	3
0.62500000	0.33335500	0.29284560	3
0.62500000	0.58335500	0.29284560	3
0.62500000	0.83335500	0.29284560	3
0.12500000	0.16664500	0.29284560	3
0.12500000	0.41664500	0.29284560	3
0.12500000	0.66664500	0.29284560	3
0.12500000	0.91664500	0.29284560	3
0.62500000	0.16664500	0.29284560	3
0.62500000	0.41664500	0.29284560	3
0.62500000	0.66664500	0.29284560	3
0.62500000	0.91664500	0.29284560	3
%endblock AtomicCoordinatesAndAtomicSpecies

DM.MixingWeight		0.05
DM.NumberPulay		8
DM.Tolerance		1.d-4
MaxSCFIterations		300

MD.TypeOfRun		CG
MD.VariableCell		.false.
MD.MaxForceTol		0.01 eV/Ang
MD.NumCGsteps		1000
#MD.MaxCGDispl		0.15 Ang

#%block GeometryConstraints
# stress 3 4 5
# position  7 0.0  0.0  1.0   
#%endblock GeometryConstraints

MeshCutoff		300.0 Ry
WriteCoorXmol		yes

%block kgrid_Monkhorst_Pack
   6   0   0  0.0
   0   2   0  0.0
   0   0   1  0.0
%endblock Kgrid_Monkhorst_Pack

UseSaveData           .true.

SaveRho                 .true.       # Write valence pseudocharge at the mesh
