SystemName TiS3
SystemLabel TiS3
NumberOfAtoms 72
SpinPolarized .true.
NumberOfSpecies 3
%block ChemicalSpeciesLabel
1  22 Ti
2  16 S
3  6 C
%endblock ChemicalSpeciesLabel

XC.functional		GGA
XC.authors		PBE

PAO.BasisSize		DZP
PAO.EnergyShift		65 meV

LatticeConstant 1.0 Ang
%block LatticeParameters
4.94760 16.89350 25.00000 90.00000 90.00000 90.00000
%endblock LatticeParameters

AtomicCoordinatesFormat  Fractional
%block AtomicCoordinatesAndAtomicSpecies
0.326889	0.050018	0.09482	1
0.326763	0.249999	0.09478	1
0.326878	0.449981	0.094819	1
0.327156	0.649975	0.094933	1
0.327169	0.850021	0.094933	1
0.826895	0.14999	-0.014647	1
0.826899	0.350009	-0.01465	1
0.827094	0.550013	-0.01456	1
0.82724	0.749999	-0.014502	1
0.827101	0.949982	-0.014557	1
0.615856	0.049952	0.923891	2
0.615614	0.250003	0.923897	2
0.61582	0.450048	0.923896	2
0.616019	0.650062	0.923979	2
0.616003	0.849941	0.923985	2
0.538085	0.150041	0.156473	2
0.538087	0.349965	0.156471	2
0.538327	0.54992	0.156532	2
0.539191	0.750001	0.156407	2
0.538327	0.950081	0.156535	2
0.826813	0.050028	0.058061	2
0.826797	0.250001	0.058018	2
0.82681	0.44997	0.058058	2
0.827148	0.649981	0.05817	2
0.827161	0.850016	0.058172	2
0.326794	0.149991	0.022276	2
0.326799	0.350008	0.022276	2
0.326965	0.550028	0.022349	2
0.327016	0.75	0.022422	2
0.326975	0.949971	0.02235	2
0.038226	0.049945	0.923896	2
0.037967	0.249995	0.923786	2
0.038193	0.450047	0.923884	2
0.038354	0.650008	0.923957	2
0.03834	0.849987	0.923953	2
0.115476	0.150037	0.156439	2
0.115476	0.34996	0.156439	2
0.115723	0.549879	0.156532	2
0.116692	0.749999	0.156782	2
0.115725	0.950117	0.156532	2
0.370365	0.208229	0.30908	3
0.370388	0.458239	0.308383	3
0.3705	0.70823	0.306862	3
0.370445	0.958221	0.307885	3
0.870376	0.208232	0.309032	3
0.870392	0.458234	0.308324	3
0.870489	0.708228	0.306799	3
0.870449	0.95823	0.307827	3
0.370386	0.04176	0.308383	3
0.370372	0.291772	0.30908	3
0.37045	0.541777	0.307885	3
0.370497	0.791769	0.306862	3
0.870393	0.041765	0.308324	3
0.870374	0.291768	0.309032	3
0.87045	0.54177	0.307826	3
0.870487	0.79177	0.306799	3
0.120376	0.083235	0.308608	3
0.120348	0.333233	0.308981	3
0.120476	0.583236	0.307572	3
0.120512	0.833235	0.307012	3
0.620399	0.083236	0.308591	3
0.620381	0.333233	0.308964	3
0.620465	0.583234	0.307552	3
0.620476	0.833236	0.306991	3
0.120346	0.166767	0.308981	3
0.120376	0.416765	0.308608	3
0.120514	0.666765	0.307012	3
0.120471	0.916762	0.307572	3
0.620378	0.166768	0.308964	3
0.620398	0.416764	0.308591	3
0.620478	0.666763	0.30699	3
0.620462	0.916764	0.307553	3
%endblock AtomicCoordinatesAndAtomicSpecies

DM.MixingWeight		0.05
DM.NumberPulay		8
DM.Tolerance		1.d-4
MaxSCFIterations		300

MD.TypeOfRun		CG
MD.VariableCell		.true.
MD.MaxForceTol		0.01 eV/Ang
MD.NumCGsteps		1000
#MD.MaxCGDispl		0.15 Ang

%block GeometryConstraints
 stress 3 4 5
 position  1 0.0  0.0  1.0   
%endblock GeometryConstraints

MeshCutoff		300.0 Ry
WriteCoorXmol		yes

%block kgrid_Monkhorst_Pack
   6   0   0  0.0
   0   2   0  0.0
   0   0   1  0.0
%endblock Kgrid_Monkhorst_Pack

UseSaveData           .true.

SaveRho                 .true.       # Write valence pseudocharge at the mesh
