 &control
    prefix='TiS3',
    calculation = 'relax',
    restart_mode = 'from_scratch'
    pseudo_dir='./',
    outdir = './',
    forc_conv_thr = 1.0d-3 ,
    !forc_conv_thr = 1.0d-2 ,
    nstep = 99,
    etot_conv_thr = 1.0d-4 ,
    !etot_conv_thr = 2.0d-10 ,
 /
 &system    
    ibrav=  0, nat=  72, ntyp= 3,
    celldm(1)=1.889726,
    ecutwfc = 39.0, ecutrho = 300,
    occupations ='smearing', smearing ='gaussian',
    degauss=0.02,
    input_dft = 'vdW-DF',
 /
 &electrons
    conv_thr = 1e-6,
    mixing_beta=0.3,
    electron_maxstep=500
 /
 &ions
 /
  &cell
#   cell_dofree = 'xy'
#   cell_factor = 1.5
 /
ATOMIC_SPECIES
  Ti  47.86700  Ti.pbe-spn-rrkjus_psl.0.3.1.UPF
   S  32.0660   S.pbe-n-rrkjus_psl.0.1.UPF
   C  12.0107   C.pbe-n-rrkjus_psl.0.1.UPF
ATOMIC_POSITIONS crystal
Ti       0.329183322   0.050140741   0.104792096
Ti       0.328556087   0.250000000   0.104597023
Ti       0.329183322   0.449859259   0.104792096
Ti       0.330282505   0.649879739   0.105317633
Ti       0.330282505   0.850120261   0.105317633
Ti       0.823578668   0.149964156  -0.007601820
Ti       0.823578668   0.350035844  -0.007601820
Ti       0.823754469   0.550072537  -0.007469864
Ti       0.823879598   0.750000000  -0.007304839
Ti       0.823754469   0.949927463  -0.007469864
S        0.619099029   0.049956627   0.930228494
S        0.619058475   0.250000000   0.930195808
S        0.619099029   0.450043373   0.930228494
S        0.619166538   0.650056179   0.930327432
S        0.619166538   0.849943821   0.930327432
S        0.531965795   0.150214602   0.166660506
S        0.531965795   0.349785398   0.166660506
S        0.534880892   0.549514383   0.166880688
S        0.536620648   0.750000000   0.166931357
S        0.534880892   0.950485617   0.166880688
S        0.825268502   0.050001095   0.065583860
S        0.824846725   0.250000000   0.065478031
S        0.825268502   0.449998905   0.065583860
S        0.825930557   0.649958029   0.065888128
S        0.825930557   0.850041971   0.065888128
S        0.327513824   0.149929011   0.031841577
S        0.327513824   0.350070989   0.031841577
S        0.327888223   0.550191583   0.032174961
S        0.328100325   0.750000000   0.032469295
S        0.327888223   0.949808417   0.032174961
S        0.033691755   0.049943148   0.930253627
S        0.033637168   0.250000000   0.930226735
S        0.033691755   0.450056852   0.930253627
S        0.033765183   0.650067771   0.930344558
S        0.033765183   0.849932229   0.930344558
S        0.116313130   0.150273998   0.166109627
S        0.116313130   0.349726002   0.166109627
S        0.119179469   0.549437647   0.166908898
S        0.121100512   0.750000000   0.167327279
S        0.119179469   0.950562353   0.166908898
C        0.375296143   0.208366103   0.298080378
C        0.375240219   0.458307784   0.297283597
C        0.374942547   0.708230193   0.297222499
C        0.375006645   0.958296689   0.298025492
C        0.875287445   0.208368325   0.297807399
C        0.875229129   0.458316170   0.296962195
C        0.874897091   0.708256614   0.296816738
C        0.874954573   0.958314455   0.297678199
C        0.375240219   0.041692216   0.297283597
C        0.375296143   0.291633897   0.298080378
C        0.375006645   0.541703311   0.298025492
C        0.374942547   0.791769807   0.297222499
C        0.875229129   0.041683830   0.296962195
C        0.875287445   0.291631675   0.297807399
C        0.874954573   0.541685545   0.297678199
C        0.874897091   0.791743386   0.296816738
C        0.125337624   0.083208154   0.297079121
C        0.125505756   0.333300389   0.297675795
C        0.125244103   0.583378206   0.297921560
C        0.125085928   0.833301950   0.297317879
C        0.625382238   0.083212988   0.297061235
C        0.625565191   0.333302396   0.297651531
C        0.625290307   0.583361864   0.297880753
C        0.625110930   0.833283669   0.297284483
C        0.125505756   0.166699611   0.297675795
C        0.125337624   0.416791846   0.297079121
C        0.125085928   0.666698050   0.297317879
C        0.125244103   0.916621794   0.297921560
C        0.625565191   0.166697604   0.297651531
C        0.625382238   0.416787012   0.297061235
C        0.625110930   0.666716331   0.297284483
C        0.625290307   0.916638136   0.297880753
CELL_PARAMETERS (alat) 
   4.94760    0.0000000000    0.0000000000
   0.0000000000    16.89350    0.0000000000
   0.0000000000    0.0000000000   25.0000000000
K_POINTS {automatic}
 6 2 1 0 0 0
