SystemName TiS3
SystemLabel TiS3
NumberOfAtoms 145
SpinPolarized .true.
NumberOfSpecies 4
%block ChemicalSpeciesLabel
1  22 Ti
2  16 S
3  6 C
4  12 Mg
%endblock ChemicalSpeciesLabel

XC.functional		GGA
XC.authors		PBE

PAO.BasisSize		DZP
PAO.EnergyShift		65 meV

LatticeConstant 1.0 Ang
%block LatticeParameters
9.99358 17.21068 25.00000 90.00000 90.00000 90.00002
%endblock LatticeParameters

AtomicCoordinatesFormat  Fractional
%block AtomicCoordinatesAndAtomicSpecies
0.163663	0.050038	0.094820	1
0.663663	0.050038	0.094820	1
0.163594	0.249991	0.094288	1
0.663594	0.249991	0.094288	1
0.163639	0.449965	0.094369	1
0.663639	0.449965	0.094369	1
0.163751	0.649975	0.094476	1
0.663751	0.649975	0.094476	1
0.163757	0.850033	0.094458	1
0.663757	0.850033	0.094458	1
0.413487	0.149953	0.985900	1
0.913487	0.149953	0.985900	1
0.413487	0.350002	0.985841	1
0.913487	0.350002	0.985841	1
0.413581	0.550011	0.985928	1
0.913581	0.550011	0.985928	1
0.413606	0.750004	0.985969	1
0.913606	0.750004	0.985969	1
0.413590	0.950019	0.985977	1
0.913590	0.950019	0.985977	1
0.309200	0.049948	0.924832	2
0.809200	0.049948	0.924832	2
0.309101	0.249980	0.924814	2
0.809101	0.249980	0.924814	2
0.309191	0.450056	0.924804	2
0.809191	0.450056	0.924804	2
0.309242	0.650033	0.924876	2
0.809242	0.650033	0.924876	2
0.309238	0.849994	0.924901	2
0.809238	0.849994	0.924901	2
0.268131	0.150193	0.155651	2
0.768131	0.150193	0.155651	2
0.268102	0.349954	0.155505	2
0.768102	0.349954	0.155505	2
0.268243	0.549888	0.155577	2
0.768243	0.549888	0.155577	2
0.268717	0.750000	0.155444	2
0.768717	0.750000	0.155444	2
0.268277	0.949997	0.155722	2
0.768277	0.949997	0.155722	2
0.413550	0.050028	0.057944	2
0.913550	0.050028	0.057944	2
0.413482	0.249997	0.057766	2
0.913482	0.249997	0.057766	2
0.413530	0.449968	0.057811	2
0.913530	0.449968	0.057811	2
0.413666	0.649979	0.057895	2
0.913666	0.649979	0.057895	2
0.413670	0.850024	0.057901	2
0.913670	0.850024	0.057901	2
0.163536	0.149839	0.022660	2
0.663536	0.149839	0.022660	2
0.163511	0.350017	0.022523	2
0.663511	0.350017	0.022523	2
0.163632	0.550030	0.022628	2
0.663632	0.550030	0.022628	2
0.163640	0.750000	0.022689	2
0.663640	0.750000	0.022689	2
0.163646	0.950106	0.022753	2
0.663646	0.950106	0.022753	2
0.018186	0.049938	0.924919	2
0.518186	0.049938	0.924919	2
0.018080	0.249965	0.924825	2
0.518080	0.249965	0.924825	2
0.018170	0.450049	0.924876	2
0.518170	0.450049	0.924876	2
0.018230	0.650037	0.924945	2
0.518230	0.650037	0.924945	2
0.018226	0.849983	0.924966	2
0.518226	0.849983	0.924966	2
0.058956	0.150189	0.155585	2
0.558956	0.150189	0.155585	2
0.058987	0.349927	0.155453	2
0.558987	0.349927	0.155453	2
0.059127	0.549875	0.155568	2
0.559127	0.549875	0.155568	2
0.059611	0.749998	0.155813	2
0.559611	0.749998	0.155813	2
0.059104	0.949995	0.155695	2
0.559104	0.949995	0.155695	2
0.185211	0.208316	0.284927	3
0.685211	0.208316	0.284927	3
0.185215	0.458326	0.284927	3
0.685215	0.458326	0.284927	3
0.185211	0.708317	0.284927	3
0.685211	0.708317	0.284927	3
0.185211	0.958312	0.284927	3
0.685211	0.958312	0.284927	3
0.435211	0.208318	0.284927	3
0.935211	0.208318	0.284927	3
0.435213	0.458325	0.284927	3
0.935213	0.458325	0.284927	3
0.435210	0.708318	0.284927	3
0.935210	0.708318	0.284927	3
0.435210	0.958315	0.284927	3
0.935210	0.958315	0.284927	3
0.185214	0.041673	0.284927	3
0.685214	0.041673	0.284927	3
0.185212	0.291683	0.284927	3
0.685212	0.291683	0.284927	3
0.185212	0.541687	0.284927	3
0.685212	0.541687	0.284927	3
0.185211	0.791681	0.284927	3
0.685211	0.791681	0.284927	3
0.435212	0.041674	0.284927	3
0.935212	0.041674	0.284927	3
0.435211	0.291682	0.284927	3
0.935211	0.291682	0.284927	3
0.435212	0.541685	0.284927	3
0.935212	0.541685	0.284927	3
0.435210	0.791680	0.284927	3
0.935210	0.791680	0.284927	3
0.060212	0.083313	0.284927	3
0.560212	0.083313	0.284927	3
0.060210	0.333321	0.284927	3
0.560210	0.333321	0.284927	3
0.060213	0.583319	0.284927	3
0.560213	0.583319	0.284927	3
0.060212	0.833315	0.284927	3
0.560212	0.833315	0.284927	3
0.310214	0.083313	0.284927	3
0.810214	0.083313	0.284927	3
0.310216	0.333320	0.284927	3
0.810216	0.333320	0.284927	3
0.310215	0.583318	0.284927	3
0.810215	0.583318	0.284927	3
0.310212	0.833316	0.284927	3
0.810212	0.833316	0.284927	3
0.060210	0.166679	0.284927	3
0.560210	0.166679	0.284927	3
0.060213	0.416687	0.284927	3
0.560213	0.416687	0.284927	3
0.060213	0.666684	0.284927	3
0.560213	0.666684	0.284927	3
0.060212	0.916680	0.284927	3
0.560212	0.916680	0.284927	3
0.310216	0.166679	0.284927	3
0.810216	0.166679	0.284927	3
0.310216	0.416686	0.284927	3
0.810216	0.416686	0.284927	3
0.310212	0.666683	0.284927	3
0.810212	0.666683	0.284927	3
0.310214	0.916681	0.284927	3
0.810214	0.916681	0.284927	3
0.41355	0.05003	0.208691566	4
%endblock AtomicCoordinatesAndAtomicSpecies

DM.MixingWeight		0.05
DM.NumberPulay		8
DM.Tolerance		1.d-4
MaxSCFIterations		300

MD.TypeOfRun		CG
MD.VariableCell		.true.
MD.MaxForceTol		0.01 eV/Ang
MD.NumCGsteps		1000
#MD.MaxCGDispl		0.15 Ang

%block GeometryConstraints
 stress 3 4 5
 position  1 0.0  0.0  1.0   
%endblock GeometryConstraints

MeshCutoff		300.0 Ry
WriteCoorXmol		yes

%block kgrid_Monkhorst_Pack
   3   0   0  0.0
   0   2   0  0.0
   0   0   1  0.0
%endblock Kgrid_Monkhorst_Pack

UseSaveData           .true.

SaveRho                 .true.       # Write valence pseudocharge at the mesh
