 &control
    prefix='TiS3',
    calculation = 'relax',
    restart_mode = 'from_scratch'
    pseudo_dir='/home/mxm2/Documents/internal_and_full_opt/Lipatov_monolayer_25_1x5x1_graphene_2x4x1_heterostructure_internal_opt',
    outdir = '/home/mxm2/Documents/internal_and_full_opt/Lipatov_monolayer_25_1x5x1_graphene_2x4x1_heterostructure_internal_opt/temp',
    forc_conv_thr = 1.0d-3 ,
    !forc_conv_thr = 1.0d-2 ,
    nstep = 99,
    etot_conv_thr = 1.0d-4 ,
    !etot_conv_thr = 2.0d-10 ,
 /
 &system    
    ibrav=  0, nat=  72, ntyp= 3,
    celldm(1)=1.889726,
    ecutwfc = 39.0, ecutrho = 300,
    occupations ='smearing', smearing ='gaussian',
    degauss=0.02,
    input_dft = 'vdW-DF',
 /
 &electrons
    conv_thr = 1e-6,
    mixing_beta=0.3,
    electron_maxstep=500
 /
 &ions
 /
  &cell
#   cell_dofree = 'xy'
#   cell_factor = 1.5
 /
ATOMIC_SPECIES
  Ti  47.86700  Ti.pbe-spn-rrkjus_psl.0.3.1.UPF
   S  32.0660   S.pbe-n-rrkjus_psl.0.1.UPF
   C  12.0107   C.pbe-n-rrkjus_psl.0.1.UPF
ATOMIC_POSITIONS crystal
Ti	0.32844800	0.05000000	0.10474200
Ti	0.32844800	0.25000000	0.10474200
Ti	0.32844800	0.45000000	0.10474200
Ti	0.32844800	0.65000000	0.10474200
Ti	0.32844800	0.85000000	0.10474200
Ti	0.82482600	0.15000000	0.00000000
Ti	0.82482600	0.35000000	0.00000000
Ti	0.82482600	0.55000000	0.00000000
Ti	0.82482600	0.75000000	0.00000000
Ti	0.82482600	0.95000000	0.00000000
S	0.61387700	0.05000000	0.94013700
S	0.61387700	0.25000000	0.94013700
S	0.61387700	0.45000000	0.94013700
S	0.61387700	0.65000000	0.94013700
S	0.61387700	0.85000000	0.94013700
S	0.53939700	0.15000000	0.16460500
S	0.53939700	0.35000000	0.16460500
S	0.53939700	0.55000000	0.16460500
S	0.53939700	0.75000000	0.16460500
S	0.53939700	0.95000000	0.16460500
S	0.82469000	0.05000000	0.07019800
S	0.82469000	0.25000000	0.07019800
S	0.82469000	0.45000000	0.07019800
S	0.82469000	0.65000000	0.07019800
S	0.82469000	0.85000000	0.07019800
S	0.32858300	0.15000000	0.03454400
S	0.32858300	0.35000000	0.03454400
S	0.32858300	0.55000000	0.03454400
S	0.32858300	0.75000000	0.03454400
S	0.32858300	0.95000000	0.03454400
S	0.04157400	0.05000000	0.93895800
S	0.04157400	0.25000000	0.93895800
S	0.04157400	0.45000000	0.93895800
S	0.04157400	0.65000000	0.93895800
S	0.04157400	0.85000000	0.93895800
S	0.11170000	0.15000000	0.16578400
S	0.11170000	0.35000000	0.16578400
S	0.11170000	0.55000000	0.16578400
S	0.11170000	0.75000000	0.16578400
S	0.11170000	0.95000000	0.16578400
C	0.37500000	0.20835500	0.29284560
C	0.37500000	0.45835500	0.29284560
C	0.37500000	0.70835500	0.29284560
C	0.37500000	0.95835500	0.29284560
C	0.87500000	0.20835500	0.29284560
C	0.87500000	0.45835500	0.29284560
C	0.87500000	0.70835500	0.29284560
C	0.87500000	0.95835500	0.29284560
C	0.37500000	0.04164500	0.29284560
C	0.37500000	0.29164500	0.29284560
C	0.37500000	0.54164500	0.29284560
C	0.37500000	0.79164500	0.29284560
C	0.87500000	0.04164500	0.29284560
C	0.87500000	0.29164500	0.29284560
C	0.87500000	0.54164500	0.29284560
C	0.87500000	0.79164500	0.29284560
C	0.12500000	0.08335500	0.29284560
C	0.12500000	0.33335500	0.29284560
C	0.12500000	0.58335500	0.29284560
C	0.12500000	0.83335500	0.29284560
C	0.62500000	0.08335500	0.29284560
C	0.62500000	0.33335500	0.29284560
C	0.62500000	0.58335500	0.29284560
C	0.62500000	0.83335500	0.29284560
C	0.12500000	0.16664500	0.29284560
C	0.12500000	0.41664500	0.29284560
C	0.12500000	0.66664500	0.29284560
C	0.12500000	0.91664500	0.29284560
C	0.62500000	0.16664500	0.29284560
C	0.62500000	0.41664500	0.29284560
C	0.62500000	0.66664500	0.29284560
C	0.62500000	0.91664500	0.29284560
CELL_PARAMETERS (alat) 
   4.94760    0.0000000000    0.0000000000
   0.0000000000    16.89350    0.0000000000
   0.0000000000    0.0000000000   25.0000000000
K_POINTS {automatic}
 6 2 1 0 0 0
